Normalized Data/p01_7090_tsplib0_normalized_split0.vrp
NAME:p01_7090_tsplib0_NORMALIZED_split
BEST_KNOWN: 0
COMMENT: 0
DIMENSION: 308
CAPACITY: 100
EDGE_WEIGHT_FORMAT: FUNCTION
EDGE_WEIGHT_TYPE: EXACT_2D
NODE_COORD_SECTION
1 0.00000 0.00000
2 7 12
3 7 12
4 7 12
5 7 12
6 7 12
7 7 12
8 19 9
9 19 9
10 19 9
11 19 9
12 19 9
13 19 9
14 19 9
15 22 24
16 22 24
17 22 24
18 22 24
19 22 24
20 22 24
21 22 24
22 22 24
23 -10 -14
24 -10 -14
25 -10 -14
26 -10 -14
27 10 -10
28 10 -10
29 10 -10
30 10 -10
31 10 -10
32 10 -10
33 10 -10
34 10 -10
35 -9 7
36 -9 7
37 -9 7
38 -9 7
39 -9 7
40 -9 7
41 -13 23
42 -13 23
43 -13 23
44 -13 23
45 -13 23
46 -13 23
47 -13 23
48 -13 23
49 -13 23
50 1 22
51 1 22
52 1 22
53 1 22
54 1 22
55 22 -7
56 22 -7
57 22 -7
58 22 -7
59 22 -7
60 22 -7
61 22 -7
62 21 -19
63 21 -19
64 21 -19
65 21 -19
66 12 1
67 12 1
68 12 1
69 12 1
70 12 1
71 1 -8
72 1 -8
73 1 -8
74 1 -8
75 1 -8
76 1 -8
77 1 -8
78 -25 -15
79 -25 -15
80 -25 -15
81 -25 -15
82 -25 -15
83 -25 -15
84 -25 -15
85 -25 -15
86 -18 2
87 -18 2
88 -18 2
89 -18 2
90 6 -24
91 6 -24
92 6 -24
93 6 -24
94 6 -24
95 6 -24
96 6 -24
97 22 1
98 22 1
99 22 1
100 22 1
101 22 1
102 -3 -17
103 -3 -17
104 -3 -17
105 -3 -17
106 -3 -17
107 -13 -7
108 -13 -7
109 -13 -7
110 -13 -7
111 -17 -27
112 -17 -27
113 -17 -27
114 -17 -27
115 -17 -27
116 -17 -27
117 27 18
118 27 18
119 27 18
120 27 18
121 32 2
122 32 2
123 32 2
124 32 2
125 32 2
126 12 17
127 12 17
128 12 17
129 12 17
130 12 17
131 12 17
132 -14 17
133 -14 17
134 -14 17
135 -14 17
136 -14 17
137 -14 17
138 -22 12
139 -22 12
140 -22 12
141 -22 12
142 -22 12
143 -23 -2
144 -23 -2
145 -23 -2
146 -23 -2
147 -23 -2
148 -3 28
149 -3 28
150 -3 28
151 -3 28
152 -3 28
153 -3 28
154 -3 28
155 -3 28
156 0 8
157 0 8
158 0 8
159 0 8
160 13 27
161 13 27
162 13 27
163 13 27
164 13 27
165 28 8
166 28 8
167 28 8
168 28 8
169 28 8
170 28 8
171 28 -13
172 28 -13
173 28 -13
174 28 -13
175 28 -13
176 7 29
177 7 29
178 7 29
179 7 29
180 7 29
181 7 29
182 8 6
183 8 6
184 8 6
185 8 6
186 8 6
187 16 -30
188 16 -30
189 16 -30
190 16 -30
191 16 -30
192 16 -30
193 31 -7
194 31 -7
195 31 -7
196 31 -7
197 31 -7
198 31 -7
199 31 -7
200 32 23
201 32 23
202 32 23
203 32 23
204 32 23
205 32 23
206 33 29
207 33 29
208 33 29
209 33 29
210 33 29
211 33 29
212 33 29
213 33 29
214 33 29
215 2 -18
216 2 -18
217 2 -18
218 2 -18
219 2 -18
220 15 -5
221 15 -5
222 15 -5
223 15 -5
224 15 -5
225 15 -5
226 15 -5
227 15 -5
228 15 -5
229 29 -25
230 29 -25
231 29 -25
232 29 -25
233 29 -25
234 29 -25
235 29 -25
236 29 -25
237 29 -25
238 -25 -34
239 -25 -34
240 -25 -34
241 -25 -34
242 -25 -34
243 -25 -34
244 -20 -23
245 -20 -23
246 -20 -23
247 -20 -23
248 -20 -23
249 -20 -23
250 -20 -23
251 -9 -30
252 -9 -30
253 -9 -30
254 -9 -30
255 -9 -30
256 -25 24
257 -25 24
258 -25 24
259 -25 24
260 -25 24
261 -25 24
262 0 -25
263 0 -25
264 0 -25
265 0 -25
266 0 -25
267 0 -25
268 0 -25
269 9 -30
270 9 -30
271 9 -30
272 9 -30
273 9 -30
274 9 -30
275 9 -30
276 2 -1
277 2 -1
278 2 -1
279 2 -1
280 2 -1
281 -5 -8
282 -5 -8
283 -5 -8
284 -5 -8
285 -5 -8
286 -5 -8
287 -5 -8
288 -5 -8
289 -5 -8
290 -5 15
291 -5 15
292 -5 15
293 -5 15
294 -5 15
295 -5 15
296 -5 15
297 -5 15
298 18 -12
299 18 -12
300 18 -12
301 18 -12
302 18 -12
303 18 -12
304 26 -3
305 26 -3
306 26 -3
307 26 -3
308 26 -3
DEMAND_SECTION
1 0
2 20
3 20
4 20
5 20
6 5
7 1
8 20
9 20
10 20
11 10
12 5
13 1
14 1
15 20
16 20
17 20
18 10
19 1
20 1
21 1
22 1
23 20
24 20
25 20
26 20
27 20
28 20
29 20
30 20
31 5
32 1
33 1
34 1
35 20
36 20
37 20
38 20
39 5
40 1
41 20
42 20
43 20
44 10
45 5
46 1
47 1
48 1
49 1
50 20
51 20
52 20
53 10
54 1
55 20
56 20
57 20
58 10
59 1
60 1
61 1
62 20
63 20
64 20
65 10
66 20
67 20
68 20
69 20
70 5
71 20
72 20
73 20
74 10
75 5
76 1
77 1
78 20
79 20
80 20
81 10
82 5
83 1
84 1
85 1
86 20
87 20
88 20
89 20
90 20
91 20
92 20
93 20
94 1
95 1
96 1
97 20
98 20
99 20
100 10
101 5
102 20
103 20
104 20
105 10
106 1
107 20
108 20
109 20
110 20
111 20
112 20
113 20
114 20
115 5
116 1
117 20
118 20
119 20
120 20
121 20
122 20
123 20
124 10
125 1
126 20
127 20
128 20
129 20
130 1
131 1
132 20
133 20
134 20
135 20
136 1
137 1
138 20
139 20
140 20
141 20
142 1
143 20
144 20
145 20
146 20
147 5
148 20
149 20
150 20
151 20
152 1
153 1
154 1
155 1
156 20
157 20
158 20
159 10
160 20
161 20
162 20
163 20
164 5
165 20
166 20
167 20
168 10
169 1
170 1
171 20
172 20
173 20
174 10
175 1
176 20
177 20
178 20
179 20
180 5
181 1
182 20
183 20
184 20
185 20
186 5
187 20
188 20
189 20
190 20
191 5
192 1
193 20
194 20
195 20
196 10
197 1
198 1
199 1
200 20
201 20
202 20
203 20
204 5
205 1
206 20
207 20
208 20
209 10
210 5
211 1
212 1
213 1
214 1
215 20
216 20
217 20
218 20
219 5
220 20
221 20
222 20
223 10
224 5
225 1
226 1
227 1
228 1
229 20
230 20
231 20
232 10
233 5
234 1
235 1
236 1
237 1
238 20
239 20
240 20
241 20
242 5
243 1
244 20
245 20
246 20
247 10
248 1
249 1
250 1
251 20
252 20
253 20
254 10
255 1
256 20
257 20
258 20
259 20
260 1
261 1
262 20
263 20
264 20
265 20
266 1
267 1
268 1
269 20
270 20
271 20
272 20
273 5
274 1
275 1
276 20
277 20
278 20
279 10
280 5
281 20
282 20
283 20
284 10
285 5
286 1
287 1
288 1
289 1
290 20
291 20
292 20
293 10
294 5
295 1
296 1
297 1
298 20
299 20
300 20
301 20
302 5
303 1
304 20
305 20
306 20
307 20
308 1
DEPOT_SECTION
1
-1
EOF