Normalized Data/p01_7090_tsplib0_normalized_split0.sol
307 -1 2 156 155 157 -4 3 128 126 127 -5 163 160 162 159 161 158 -6 129 130 125 19 20 21 17 16 14 15 18 -7 118 116 119 117 -10 13 9 199 200 203 201 -12 8 11 164 168 167 169 165 166 -22 111 112 113 110 -23 25 109 106 108 -24 246 245 244 243 248 247 249 -30 28 26 29 27 32 33 31 -35 38 37 36 34 39 -43 45 47 255 256 260 257 259 258 -46 42 44 48 40 41 290 296 293 -50 51 49 291 289 -53 52 175 180 177 178 176 179 -58 59 57 55 54 56 60 98 -62 61 297 300 298 -63 236 229 235 231 234 232 233 228 230 -64 187 188 190 186 191 189 -68 69 66 65 67 278 279 -75 76 70 73 74 71 72 276 -80 82 81 79 83 84 78 77 107 -85 86 88 87 -90 92 91 89 214 -94 95 93 274 273 272 270 271 269 268 -96 121 122 120 123 124 -99 97 100 307 303 305 304 -101 103 102 215 216 -105 104 262 265 263 267 261 264 266 -114 115 237 239 242 241 240 238 -131 133 132 134 135 136 -140 137 138 139 141 -142 143 144 145 146 -154 147 148 149 152 153 150 151 294 292 295 -172 173 174 171 170 299 302 301 -181 184 182 183 185 -193 192 196 198 194 197 195 306 -202 204 207 210 206 208 205 212 213 211 209 -218 217 250 252 251 253 254 -226 225 227 224 223 221 219 220 222 275 -277 281 280 283 288 287 284 282 285 286 0 





OBJ=
2210.908
BEST_KNOWN=
0.000